c 1 = V0_x_a_1[0]
c 2 = V0_y_a_0[0]
c 3 = S0[0]
c 4 = V0_x_a_0[0]
c 5 = V0_y_a_1[0]
c 6 = S1[0]
c 7 = S3[0]
c 8 = S2[0]
p cnf 8 22
-1 -2 3 0
-3 1 0
-3 2 0
-4 -5 6 0
-6 4 0
-6 5 0
-1 -5 7 0
-7 1 0
-7 5 0
8 4 0
8 5 0
8 1 0
8 2 0
-4 -5 -1 -2 -8 0
1 -4 0
5 -2 0
-4 -5 -1 -2 -1 -5 0
-7 8 0
7 -8 0
-6 3 0
6 -3 0
-4 -2 0
